100 10
551 466
795 591
383 846
112 718
459 571
788 267
144 597
259 926
323 856
713 259
470 279
544 588
458 912
639 262
360 479
335 672
929 496
555 877
770 268
295 464
331 628
215 831
518 399
697 47
459 715
549 824
691 179
748 604
804 489
154 312
777 342
408 672
630 623
510 700
611 526
600 499
418 582
213 383
474 804
717 673
532 673
398 684
250 935
941 528
523 812
402 715
476 733
570 681
601 584
456 261
586 384
554 549
171 622
391 700
279 533
536 904
693 472
639 194
501 744
362 718
525 811
783 418
339 893
198 850
261 510
225 404
793 346
651 612
492 539
548 443
849 444
379 704
659 439
212 943
854 559
416 910
521 661
326 649
383 598
958 400
459 791
610 113
528 592
715 473
630 509
430 419
354 626
547 821
804 392
693 240
490 577
698 208
419 772
519 564
592 621
482 490
442 335
788 504
514 425
466 799
